% demand
num_movements = 36;
loading_factor = [850, 1550, 1800, 1650, 1050, 1900, 1800, 1200, 1550, 1550, 900, 1800, 1550, 900, 1450, 800, 850, 1450, 1050, 1600, 1300, 800, 1500, 1700, 1800, 850, 1900, 1350, 950, 1000, 1700, 800, 2000, 1450, 1000, 1650];
pickup_time = [0, 0, 0, 1, 1, 1, 1, 2, 2, 2, 2, 2, 4, 4, 4, 4, 4, 4, 5, 5, 5, 5, 5, 6, 7, 8, 8, 8, 8, 9, 9, 10, 10, 10, 12, 13];
delivery_time = [1, 1, 1, 2, 2, 2, 2, 3, 3, 3, 3, 3, 5, 5, 5, 5, 5, 5, 6, 6, 6, 8, 8, 8, 8, 11, 14, 10, 9, 10, 10, 11, 14, 12, 14, 14];

% transporter definition
total_capacity = 7000;
num_decks = 3;
capacity = [3000, 1000, 3000];

% ways out of decks
num_ways_out = 1;
paths_out = array3d(decks, ways_out, decks, [
% ways out of deck d1
2, 3, 0, 

% ways out of deck d2
3, 0, 0, 

% ways out of deck d3
0, 0, 0,	

]);

